
Gurobi 10.0.1 (linux64) logging started Sun Nov 26 15:45:02 2023

Set parameter LogFile to value "ArtificialInstance/ExperimentV2/S3T4K1/AdSp/gurobi91.txt"
Gurobi Optimizer version 10.0.1 build v10.0.1rc0 (linux64)

CPU model: AMD EPYC 7H12 64-Core Processor, instruction set [SSE2|AVX|AVX2]
Thread count: 128 physical cores, 128 logical processors, using up to 32 threads

Academic license 656792 - for non-commercial use only - registered to b.___@student.vu.nl
Optimize a model with 3708 rows, 3524 columns and 13344 nonzeros
Model fingerprint: 0x4d6332ea
Variable types: 0 continuous, 3524 integer (3524 binary)
Coefficient statistics:
  Matrix range     [1e+00, 1e+00]
  Objective range  [1e+00, 2e+01]
  Bounds range     [1e+00, 1e+00]
  RHS range        [1e+00, 1e+00]
Presolve removed 354 rows and 330 columns
Presolve time: 0.05s
Presolved: 3354 rows, 3194 columns, 12344 nonzeros
Variable types: 0 continuous, 3194 integer (3194 binary)
Found heuristic solution: objective 544.1605907

Root relaxation: objective 4.603130e+01, 2078 iterations, 0.06 seconds (0.05 work units)

    Nodes    |    Current Node    |     Objective Bounds      |     Work
 Expl Unexpl |  Obj  Depth IntInf | Incumbent    BestBd   Gap | It/Node Time

     0     0   46.03130    0  272  544.16059   46.03130  91.5%     -    0s
H    0     0                     352.7926623   46.03130  87.0%     -    0s
H    0     0                     120.3389892   46.03130  61.7%     -    0s
H    0     0                      52.6369732   46.03130  12.5%     -    0s
H    0     0                      50.0421799   48.97723  2.13%     -    0s
     0     0   50.04218    0  353   50.04218   50.04218  0.00%     -    0s

Cutting planes:
  Gomory: 2
  Zero half: 22

Explored 1 nodes (3406 simplex iterations) in 0.22 seconds (0.15 work units)
Thread count was 32 (of 128 available processors)

Solution count 5: 50.0422 52.637 120.339 ... 544.161

Optimal solution found (tolerance 1.00e-04)
Best objective 5.004217988260e+01, best bound 5.004217988260e+01, gap 0.0000%
